mg1 b2
1.0
        3.0736801624         0.0000000000         0.0000000000
       -1.5368400812         2.6618851038         0.0000000000
        0.0000000000         0.0000000000         3.5343494415
   Mg    B
    1    2
Direct
     0.000000000         0.000000000         0.000000000
     0.666667014         0.333332943         0.500000000
     0.333332985         0.666666960         0.500000000
