mg1 b2
1.0
        3.0736801624         0.0000000000         0.0000000000
       -1.5368400812         2.6618851038         0.0000000000
        0.0000000000         0.0000000000         3.5343494415
   Mg    B
    1    2
Cartesian
     0.000000000         0.000000000         0.000000000
     1.536841631         0.887294054         1.767174721
    -0.000001522         1.774590850         1.767174721
