unknown system
           1
     5.506401    0.000000    0.000000
     0.000000    5.506401    0.000000
     0.000000    0.000000   18.000000
   Co   S
   2   4
Direct
   0.50000000  0.50000000  0.53429442
   0.00000000  0.00000000  0.53429442
   0.88789300  0.38789300  0.56858918
   0.38789300  0.11210700  0.49999966
   0.61210700  0.88789300  0.56858918
   0.11210700  0.61210700  0.49999966
