ENCUT = 500
PREC = ACCURATE
EDIFF = 1.0E-6
ISPIN = 2
IBRION = 2
ISIF = 3
EDIFFG = -0.01
NSW = 200
NELM = 300
ISMEAR = 0
SIGMA = 0.05
NPAR = 8
LWAVE = .FALSE.
LCHARG = .FALSE.
