ENCUT = 550
PREC = ACCURATE
EDIFF = 1.0E-6
ISPIN = 2
MAGMOM = 5 -5 4*0
IBRION = 2 
ISIF = 3
EDIFFG = -0.01
NSW = 200
NELM = 300
ISMEAR = 0
SIGMA = 0.05
NPAR = 8
LWAVE = .FALSE.
LCHARG = .FALSE.